@RELATION fruit_rigorous_500

@ATTRIBUTE color {Red, Green, Yellow, Orange}
@ATTRIBUTE weight NUMERIC
@ATTRIBUTE diameter NUMERIC
@ATTRIBUTE texture {Smooth, Rough, Bumpy}
@ATTRIBUTE class {Apple, Banana, Orange}

@DATA
% --- APPLES (167 instances) ---
Red,185.34,7.42,Smooth,Apple
Green,192.12,7.85,Smooth,Apple
Red,210.55,8.12,Smooth,Apple
Red,145.02,6.21,Rough,Apple
Red,220.33,8.54,Smooth,Apple
Green,170.51,7.03,Smooth,Apple
Red,198.44,7.91,Smooth,Apple
Red,160.28,6.82,Smooth,Apple
Red,240.11,8.91,Smooth,Apple
Red,188.76,7.53,Smooth,Apple
Green,155.45,6.54,Smooth,Apple
Red,205.19,8.02,Rough,Apple
Red,182.31,7.41,Smooth,Apple
Red,195.62,7.74,Smooth,Apple
Green,212.44,8.22,Smooth,Apple
Red,177.93,7.31,Smooth,Apple
Red,190.02,7.62,Smooth,Apple
Red,165.88,6.93,Smooth,Apple
Red,230.55,8.61,Smooth,Apple
Red,184.27,7.45,Smooth,Apple
Green,191.45,7.77,Smooth,Apple
Red,199.32,7.95,Smooth,Apple
Red,202.11,8.05,Smooth,Apple
Red,175.44,7.22,Smooth,Apple
Green,168.33,7.11,Smooth,Apple
Red,215.66,8.34,Smooth,Apple
Red,181.22,7.35,Smooth,Apple
Red,189.44,7.61,Smooth,Apple
Red,172.55,7.05,Smooth,Apple
Red,194.11,7.72,Smooth,Apple
Green,208.22,8.15,Smooth,Apple
Red,187.33,7.49,Smooth,Apple
Red,196.55,7.82,Smooth,Apple
Red,163.44,6.85,Smooth,Apple
Red,225.11,8.45,Smooth,Apple
Red,180.22,7.32,Smooth,Apple
Green,193.33,7.71,Smooth,Apple
Red,174.44,7.15,Smooth,Apple
Red,201.55,8.02,Smooth,Apple
Red,186.11,7.41,Smooth,Apple
Red,197.22,7.85,Smooth,Apple
Green,211.33,8.21,Smooth,Apple
Red,178.44,7.35,Smooth,Apple
Red,191.55,7.65,Smooth,Apple
Red,167.11,6.92,Smooth,Apple
Red,235.22,8.71,Smooth,Apple
Red,183.33,7.42,Smooth,Apple
Green,194.44,7.75,Smooth,Apple
Red,176.55,7.21,Smooth,Apple
Red,203.11,8.05,Smooth,Apple
Red,188.22,7.51,Smooth,Apple
Red,199.33,7.91,Smooth,Apple
Green,213.44,8.25,Smooth,Apple
Red,180.55,7.35,Smooth,Apple
Red,192.11,7.62,Smooth,Apple
Red,169.22,6.95,Smooth,Apple
Red,238.33,8.81,Smooth,Apple
Red,184.44,7.45,Smooth,Apple
Green,195.55,7.81,Smooth,Apple
Red,177.11,7.25,Smooth,Apple
Red,205.22,8.11,Smooth,Apple
Red,189.33,7.55,Smooth,Apple
Red,200.44,7.95,Smooth,Apple
Green,215.55,8.31,Smooth,Apple
Red,181.11,7.39,Smooth,Apple
Red,193.22,7.68,Smooth,Apple
Red,170.33,7.01,Smooth,Apple
Red,241.44,8.95,Smooth,Apple
Red,185.55,7.48,Smooth,Apple
Green,196.11,7.85,Smooth,Apple
Red,178.22,7.28,Smooth,Apple
Red,207.33,8.15,Smooth,Apple
Red,190.44,7.59,Smooth,Apple
Red,202.55,8.01,Smooth,Apple
Green,217.11,8.35,Smooth,Apple
Red,182.22,7.42,Smooth,Apple
Red,194.33,7.72,Smooth,Apple
Red,171.44,7.05,Smooth,Apple
Red,244.55,9.01,Smooth,Apple
Red,187.11,7.52,Smooth,Apple
Green,197.22,7.89,Smooth,Apple
Red,179.33,7.31,Smooth,Apple
Red,209.44,8.21,Smooth,Apple
Red,191.55,7.62,Smooth,Apple
Red,204.11,8.05,Smooth,Apple
Green,219.22,8.41,Smooth,Apple
Red,183.33,7.45,Smooth,Apple
Red,195.44,7.75,Smooth,Apple
Red,172.55,7.08,Smooth,Apple
Red,247.11,9.05,Smooth,Apple
Red,188.22,7.55,Smooth,Apple
Green,198.33,7.92,Smooth,Apple
Red,180.44,7.35,Smooth,Apple
Red,211.55,8.25,Smooth,Apple
Red,192.11,7.65,Smooth,Apple
Red,206.22,8.11,Smooth,Apple
Green,221.33,8.45,Smooth,Apple
Red,184.44,7.48,Smooth,Apple
Red,196.55,7.79,Smooth,Apple
Red,173.11,7.11,Smooth,Apple
Red,249.22,9.11,Smooth,Apple
Red,189.33,7.58,Smooth,Apple
Green,199.44,7.95,Smooth,Apple
Red,181.55,7.38,Smooth,Apple
Red,213.11,8.31,Smooth,Apple
Red,193.22,7.68,Smooth,Apple
Red,208.33,8.15,Smooth,Apple
Green,223.44,8.51,Smooth,Apple
Red,185.55,7.51,Smooth,Apple
Red,197.11,7.82,Smooth,Apple
Red,174.22,7.15,Smooth,Apple
Red,152.33,6.32,Rough,Apple
Red,190.44,7.61,Smooth,Apple
Green,201.55,7.99,Smooth,Apple
Red,182.11,7.41,Smooth,Apple
Red,215.22,8.35,Smooth,Apple
Red,194.33,7.71,Smooth,Apple
Red,210.44,8.21,Smooth,Apple
Green,225.55,8.55,Smooth,Apple
Red,186.11,7.55,Smooth,Apple
Red,198.22,7.85,Smooth,Apple
Red,175.33,7.18,Smooth,Apple
Red,155.44,6.41,Rough,Apple
Red,191.55,7.65,Smooth,Apple
Green,202.11,8.02,Smooth,Apple
Red,183.22,7.45,Smooth,Apple
Red,217.33,8.41,Smooth,Apple
Red,195.44,7.75,Smooth,Apple
Red,212.55,8.25,Smooth,Apple
Green,227.11,8.61,Smooth,Apple
Red,187.22,7.58,Smooth,Apple
Red,199.33,7.88,Smooth,Apple
Red,176.44,7.21,Smooth,Apple
Red,158.55,6.51,Rough,Apple
Red,192.11,7.68,Smooth,Apple
Green,204.22,8.05,Smooth,Apple
Red,184.33,7.48,Smooth,Apple
Red,219.44,8.45,Smooth,Apple
Red,196.55,7.79,Smooth,Apple
Red,214.11,8.31,Smooth,Apple
Green,229.22,8.65,Smooth,Apple
Red,188.33,7.61,Smooth,Apple
Red,200.44,7.92,Smooth,Apple
Red,177.55,7.25,Smooth,Apple
Red,161.11,6.61,Rough,Apple
Red,193.22,7.71,Smooth,Apple
Green,206.33,8.09,Smooth,Apple
Red,185.44,7.51,Smooth,Apple
Red,221.55,8.51,Smooth,Apple
Red,197.11,7.82,Smooth,Apple
Red,216.22,8.35,Smooth,Apple
Green,231.33,8.71,Smooth,Apple
Red,189.44,7.65,Smooth,Apple
Red,202.55,7.95,Smooth,Apple
Red,178.11,7.28,Smooth,Apple
Red,164.22,6.71,Rough,Apple
Red,194.33,7.75,Smooth,Apple
Green,208.44,8.12,Smooth,Apple
Red,186.55,7.55,Smooth,Apple
Red,223.11,8.55,Smooth,Apple
Red,198.22,7.88,Smooth,Apple
Red,218.33,8.41,Smooth,Apple
Green,233.44,8.75,Smooth,Apple
Red,190.55,7.68,Smooth,Apple
Red,204.11,7.99,Smooth,Apple
Red,179.22,7.32,Smooth,Apple

% --- BANANAS (167 instances) ---
Yellow,120.41,3.22,Smooth,Banana
Green,115.82,2.95,Smooth,Banana
Yellow,145.23,3.91,Smooth,Banana
Yellow,122.14,3.15,Smooth,Banana
Yellow,135.55,3.62,Smooth,Banana
Yellow,105.36,2.71,Smooth,Banana
Yellow,128.97,3.35,Smooth,Banana
Yellow,112.48,2.82,Smooth,Banana
Yellow,155.19,4.21,Smooth,Banana
Yellow,124.71,3.25,Smooth,Banana
Green,110.02,2.81,Smooth,Banana
Yellow,158.33,4.42,Smooth,Banana
Yellow,119.24,3.11,Smooth,Banana
Yellow,133.45,3.52,Smooth,Banana
Yellow,121.06,3.15,Smooth,Banana
Yellow,114.67,2.92,Smooth,Banana
Yellow,140.88,3.85,Smooth,Banana
Yellow,127.29,3.31,Smooth,Banana
Yellow,131.51,3.45,Smooth,Banana
Yellow,123.42,3.22,Smooth,Banana
Yellow,117.11,2.99,Smooth,Banana
Yellow,129.22,3.33,Smooth,Banana
Yellow,136.33,3.65,Smooth,Banana
Yellow,111.44,2.85,Smooth,Banana
Green,108.55,2.75,Smooth,Banana
Yellow,142.66,3.95,Smooth,Banana
Yellow,125.11,3.28,Smooth,Banana
Yellow,130.22,3.41,Smooth,Banana
Yellow,118.33,3.05,Smooth,Banana
Yellow,126.44,3.32,Smooth,Banana
Green,104.55,2.65,Smooth,Banana
Yellow,148.11,4.15,Smooth,Banana
Yellow,113.22,2.88,Smooth,Banana
Yellow,132.33,3.51,Smooth,Banana
Yellow,120.44,3.12,Smooth,Banana
Yellow,116.55,3.01,Smooth,Banana
Yellow,139.11,3.81,Smooth,Banana
Yellow,122.22,3.18,Smooth,Banana
Yellow,134.33,3.58,Smooth,Banana
Yellow,119.44,3.11,Smooth,Banana
Yellow,121.55,3.15,Smooth,Banana
Green,107.11,2.72,Smooth,Banana
Yellow,144.22,4.01,Smooth,Banana
Yellow,115.33,2.92,Smooth,Banana
Yellow,131.44,3.48,Smooth,Banana
Yellow,123.55,3.21,Smooth,Banana
Yellow,118.11,3.05,Smooth,Banana
Yellow,141.22,3.88,Smooth,Banana
Yellow,125.33,3.25,Smooth,Banana
Yellow,137.44,3.68,Smooth,Banana
Yellow,114.55,2.91,Smooth,Banana
Yellow,124.11,3.22,Smooth,Banana
Green,102.22,2.58,Smooth,Banana
Yellow,146.33,4.11,Smooth,Banana
Yellow,110.44,2.81,Smooth,Banana
Yellow,133.55,3.55,Smooth,Banana
Yellow,121.11,3.15,Smooth,Banana
Yellow,119.22,3.08,Smooth,Banana
Yellow,143.33,3.95,Smooth,Banana
Yellow,128.44,3.35,Smooth,Banana
Yellow,139.55,3.75,Smooth,Banana
Yellow,112.11,2.85,Smooth,Banana
Yellow,127.22,3.31,Smooth,Banana
Green,105.33,2.68,Smooth,Banana
Yellow,149.44,4.21,Smooth,Banana
Yellow,117.55,3.01,Smooth,Banana
Yellow,135.11,3.61,Smooth,Banana
Yellow,124.22,3.25,Smooth,Banana
Yellow,120.33,3.12,Smooth,Banana
Yellow,145.44,4.05,Smooth,Banana
Yellow,129.55,3.39,Smooth,Banana
Yellow,141.11,3.82,Smooth,Banana
Yellow,111.22,2.82,Smooth,Banana
Yellow,128.33,3.35,Smooth,Banana
Green,109.44,2.78,Smooth,Banana
Yellow,151.55,4.31,Smooth,Banana
Yellow,116.11,2.98,Smooth,Banana
Yellow,138.22,3.71,Smooth,Banana
Yellow,122.33,3.19,Smooth,Banana
Yellow,118.44,3.08,Smooth,Banana
Yellow,147.55,4.15,Smooth,Banana
Yellow,131.11,3.45,Smooth,Banana
Yellow,143.22,3.89,Smooth,Banana
Yellow,114.33,2.91,Smooth,Banana
Yellow,130.44,3.41,Smooth,Banana
Green,103.55,2.61,Smooth,Banana
Yellow,153.11,4.41,Smooth,Banana
Yellow,119.22,3.11,Smooth,Banana
Yellow,140.33,3.78,Smooth,Banana
Yellow,125.44,3.28,Smooth,Banana
Yellow,121.55,3.18,Smooth,Banana
Yellow,149.11,4.25,Smooth,Banana
Yellow,133.22,3.51,Smooth,Banana
Yellow,145.33,3.98,Smooth,Banana
Yellow,116.44,2.98,Smooth,Banana
Yellow,132.55,3.48,Smooth,Banana
Green,106.11,2.69,Smooth,Banana
Yellow,156.22,4.51,Smooth,Banana
Yellow,118.33,3.08,Smooth,Banana
Yellow,142.44,3.85,Smooth,Banana
Yellow,127.55,3.35,Smooth,Banana
Yellow,123.11,3.21,Smooth,Banana
Yellow,151.22,4.35,Smooth,Banana
Yellow,135.33,3.58,Smooth,Banana
Yellow,147.44,4.05,Smooth,Banana
Yellow,110.55,2.85,Smooth,Banana
Yellow,134.11,3.51,Smooth,Banana
Green,108.22,2.75,Smooth,Banana
Yellow,159.33,4.61,Smooth,Banana
Yellow,120.44,3.15,Smooth,Banana
Yellow,144.55,3.92,Smooth,Banana
Yellow,129.11,3.41,Smooth,Banana
Yellow,125.22,3.28,Smooth,Banana
Yellow,154.33,4.45,Smooth,Banana
Yellow,137.44,3.65,Smooth,Banana
Yellow,149.55,4.12,Smooth,Banana
Yellow,113.11,2.92,Smooth,Banana
Yellow,136.22,3.58,Smooth,Banana
Green,111.33,2.82,Smooth,Banana
Yellow,157.44,4.55,Smooth,Banana
Yellow,122.55,3.22,Smooth,Banana
Yellow,146.11,3.99,Smooth,Banana
Yellow,131.22,3.48,Smooth,Banana
Yellow,127.33,3.35,Smooth,Banana
Yellow,156.44,4.52,Smooth,Banana
Yellow,139.55,3.72,Smooth,Banana
Yellow,152.11,4.21,Smooth,Banana
Yellow,115.22,3.01,Smooth,Banana
Yellow,138.33,3.65,Smooth,Banana
Green,114.44,2.91,Smooth,Banana
Yellow,154.55,4.48,Smooth,Banana
Yellow,124.11,3.28,Smooth,Banana
Yellow,148.22,4.05,Smooth,Banana
Yellow,133.33,3.55,Smooth,Banana
Yellow,129.44,3.42,Smooth,Banana
Yellow,158.55,4.62,Smooth,Banana
Yellow,141.11,3.79,Smooth,Banana
Yellow,155.22,4.31,Smooth,Banana
Yellow,117.33,3.08,Smooth,Banana
Yellow,140.44,3.72,Smooth,Banana
Green,116.55,2.98,Smooth,Banana
Yellow,153.11,4.38,Smooth,Banana
Yellow,126.22,3.35,Smooth,Banana
Yellow,150.33,4.12,Smooth,Banana
Yellow,135.44,3.62,Smooth,Banana
Yellow,131.55,3.48,Smooth,Banana
Yellow,160.11,4.72,Smooth,Banana
Yellow,143.22,3.85,Smooth,Banana
Yellow,158.33,4.41,Smooth,Banana
Yellow,119.44,3.15,Smooth,Banana
Yellow,142.55,3.79,Smooth,Banana
Green,118.11,3.05,Smooth,Banana
Yellow,151.22,4.28,Smooth,Banana
Yellow,128.33,3.42,Smooth,Banana
Yellow,152.44,4.19,Smooth,Banana
Yellow,137.55,3.68,Smooth,Banana
Yellow,133.11,3.55,Smooth,Banana
Yellow,112.22,2.88,Smooth,Banana
Yellow,145.33,3.92,Smooth,Banana
Yellow,160.44,4.51,Smooth,Banana
Yellow,121.55,3.22,Smooth,Banana
Yellow,144.11,3.85,Smooth,Banana

% --- ORANGES (166 instances) ---
Orange,160.51,6.82,Bumpy,Orange
Orange,142.32,6.25,Bumpy,Orange
Orange,175.93,7.11,Rough,Orange
Orange,155.04,6.54,Bumpy,Orange
Orange,185.45,7.52,Bumpy,Orange
Orange,148.26,6.31,Bumpy,Orange
Orange,168.17,7.02,Bumpy,Orange
Orange,152.78,6.62,Bumpy,Orange
Orange,195.09,7.91,Bumpy,Orange
Orange,159.21,6.72,Bumpy,Orange
Orange,162.32,6.85,Rough,Orange
Orange,135.53,6.12,Bumpy,Orange
Orange,171.14,7.21,Bumpy,Orange
Orange,150.95,6.42,Bumpy,Orange
Orange,166.46,6.95,Bumpy,Orange
Orange,158.07,6.72,Bumpy,Orange
Orange,177.38,7.32,Rough,Orange
Orange,145.69,6.22,Bumpy,Orange
Orange,188.21,7.62,Bumpy,Orange
Orange,161.42,6.85,Bumpy,Orange
Orange,156.11,6.55,Bumpy,Orange
Orange,169.22,7.05,Bumpy,Orange
Orange,172.33,7.15,Bumpy,Orange
Orange,144.44,6.25,Bumpy,Orange
Orange,180.55,7.41,Bumpy,Orange
Orange,153.11,6.65,Bumpy,Orange
Orange,165.22,6.91,Bumpy,Orange
Orange,178.33,7.35,Bumpy,Orange
Orange,150.44,6.45,Bumpy,Orange
Orange,174.55,7.22,Bumpy,Orange
Orange,159.11,6.75,Bumpy,Orange
Orange,183.22,7.51,Bumpy,Orange
Orange,146.33,6.32,Bumpy,Orange
Orange,171.44,7.18,Bumpy,Orange
Orange,162.55,6.88,Bumpy,Orange
Orange,157.11,6.61,Bumpy,Orange
Orange,176.22,7.28,Bumpy,Orange
Orange,181.33,7.45,Bumpy,Orange
Orange,149.44,6.41,Bumpy,Orange
Orange,167.55,6.98,Bumpy,Orange
Orange,163.11,6.82,Bumpy,Orange
Orange,158.22,6.65,Bumpy,Orange
Orange,179.33,7.38,Bumpy,Orange
Orange,184.44,7.55,Bumpy,Orange
Orange,151.55,6.48,Bumpy,Orange
Orange,170.11,7.08,Bumpy,Orange
Orange,164.22,6.89,Bumpy,Orange
Orange,155.33,6.58,Bumpy,Orange
Orange,182.44,7.48,Bumpy,Orange
Orange,187.55,7.65,Bumpy,Orange
Orange,152.11,6.51,Bumpy,Orange
Orange,172.22,7.12,Bumpy,Orange
Orange,166.33,6.95,Bumpy,Orange
Orange,159.44,6.72,Bumpy,Orange
Orange,185.55,7.58,Bumpy,Orange
Orange,190.11,7.75,Bumpy,Orange
Orange,154.22,6.55,Bumpy,Orange
Orange,173.33,7.18,Bumpy,Orange
Orange,168.44,7.01,Bumpy,Orange
Orange,161.55,6.78,Bumpy,Orange
Orange,188.11,7.65,Bumpy,Orange
Orange,193.22,7.85,Bumpy,Orange
Orange,156.33,6.61,Bumpy,Orange
Orange,175.44,7.25,Bumpy,Orange
Orange,170.55,7.08,Bumpy,Orange
Orange,163.11,6.82,Bumpy,Orange
Orange,191.22,7.72,Bumpy,Orange
Orange,196.33,7.95,Bumpy,Orange
Orange,158.44,6.68,Bumpy,Orange
Orange,177.55,7.31,Bumpy,Orange
Orange,172.11,7.15,Bumpy,Orange
Orange,165.22,6.88,Bumpy,Orange
Orange,194.33,7.82,Bumpy,Orange
Orange,199.44,8.05,Bumpy,Orange
Orange,160.55,6.75,Bumpy,Orange
Orange,179.11,7.38,Bumpy,Orange
Orange,174.22,7.22,Bumpy,Orange
Orange,167.33,6.95,Bumpy,Orange
Orange,197.44,7.92,Bumpy,Orange
Orange,201.55,8.15,Bumpy,Orange
Orange,162.11,6.81,Bumpy,Orange
Orange,181.22,7.45,Bumpy,Orange
Orange,176.33,7.28,Bumpy,Orange
Orange,169.44,7.01,Bumpy,Orange
Orange,200.55,8.02,Bumpy,Orange
Orange,204.11,8.25,Bumpy,Orange
Orange,164.22,6.88,Bumpy,Orange
Orange,183.33,7.52,Bumpy,Orange
Orange,178.44,7.35,Bumpy,Orange
Orange,171.55,7.08,Bumpy,Orange
Orange,203.11,8.12,Bumpy,Orange
Orange,136.22,6.05,Bumpy,Orange
Orange,166.33,6.95,Bumpy,Orange
Orange,185.44,7.58,Bumpy,Orange
Orange,180.55,7.42,Bumpy,Orange
Orange,173.11,7.15,Bumpy,Orange
Orange,138.22,6.15,Rough,Orange
Orange,168.33,7.02,Bumpy,Orange
Orange,187.44,7.65,Bumpy,Orange
Orange,182.55,7.48,Bumpy,Orange
Orange,175.11,7.21,Bumpy,Orange
Orange,141.22,6.25,Bumpy,Orange
Orange,170.33,7.08,Bumpy,Orange
Orange,189.44,7.72,Bumpy,Orange
Orange,184.55,7.55,Bumpy,Orange
Orange,177.11,7.28,Bumpy,Orange
Orange,143.22,6.35,Bumpy,Orange
Orange,172.33,7.15,Bumpy,Orange
Orange,191.44,7.79,Bumpy,Orange
Orange,186.55,7.62,Bumpy,Orange
Orange,179.11,7.35,Bumpy,Orange
Orange,145.22,6.45,Bumpy,Orange
Orange,174.33,7.22,Bumpy,Orange
Orange,193.44,7.85,Bumpy,Orange
Orange,188.55,7.68,Bumpy,Orange
Orange,181.11,7.41,Bumpy,Orange
Orange,147.22,6.55,Bumpy,Orange
Orange,176.33,7.28,Bumpy,Orange
Orange,195.44,7.92,Bumpy,Orange
Orange,190.55,7.75,Bumpy,Orange
Orange,183.11,7.48,Bumpy,Orange
Orange,149.22,6.65,Rough,Orange
Orange,178.33,7.35,Bumpy,Orange
Orange,197.44,7.99,Bumpy,Orange
Orange,192.55,7.82,Bumpy,Orange
Orange,185.11,7.55,Bumpy,Orange
Orange,151.22,6.75,Bumpy,Orange
Orange,180.33,7.42,Bumpy,Orange
Orange,199.44,8.05,Bumpy,Orange
Orange,194.55,7.89,Bumpy,Orange
Orange,187.11,7.61,Bumpy,Orange
Orange,153.22,6.85,Bumpy,Orange
Orange,182.33,7.49,Bumpy,Orange
Orange,201.44,8.12,Bumpy,Orange
Orange,196.55,7.95,Bumpy,Orange
Orange,189.11,7.68,Bumpy,Orange
Orange,155.22,6.95,Bumpy,Orange
Orange,184.33,7.55,Bumpy,Orange
Orange,203.44,8.19,Bumpy,Orange
Orange,198.55,8.02,Bumpy,Orange
Orange,191.11,7.75,Bumpy,Orange
Orange,157.22,7.05,Rough,Orange
Orange,186.33,7.62,Bumpy,Orange
Orange,205.44,8.25,Bumpy,Orange
Orange,200.55,8.09,Bumpy,Orange
Orange,193.11,7.82,Bumpy,Orange
Orange,159.22,7.15,Bumpy,Orange
Orange,188.33,7.69,Bumpy,Orange
Orange,207.44,8.32,Bumpy,Orange
Orange,202.55,8.15,Bumpy,Orange
Orange,195.11,7.89,Bumpy,Orange
Orange,161.22,7.25,Bumpy,Orange
Orange,190.33,7.75,Bumpy,Orange
Orange,209.44,8.39,Bumpy,Orange
Orange,204.55,8.22,Bumpy,Orange
Orange,197.11,7.95,Bumpy,Orange
Orange,163.22,7.35,Bumpy,Orange
Orange,192.33,7.82,Bumpy,Orange
Orange,211.44,8.45,Bumpy,Orange
Orange,206.55,8.29,Bumpy,Orange
Orange,199.11,8.02,Bumpy,Orange
Orange,165.22,7.45,Bumpy,Orange
Orange,194.33,7.89,Bumpy,Orange
Orange,213.44,8.52,Bumpy,Orange
Orange,208.55,8.35,Bumpy,Orange
Orange,201.11,8.09,Bumpy,Orange
Orange,167.22,7.55,Bumpy,Orange